.Version 9.6.2 of ABINIT

 ABINIT is a project of the Universite Catholique de Louvain,
 Corning Inc. and other collaborators, see ~abinit/doc/developers/contributors.txt .
 acknowledgments of the ABINIT effort.

.Starting date : Tue 22 Apr 2025.
- ( at 14h58 )

- The starting date is more than 3 years after the initial release
- of this version of ABINIT, namely Nov 2021.
- This version of ABINIT is not supported anymore.
- Action: please, switch to a more recent version of ABINIT.
- input  file    -> ab.in
- output file    -> ab.abo
- root for input  files -> abi
- root for output files -> abo

 DATASET    1 : space group Fd -3 m (#227); Bravais cF (face-center cubic)
     intxc =       0    ionmov =       0      iscf =       7    lmnmax =       6
     lnmax =       6     mgfft =      27  mpssoang =       3    mqgrid =    3001
     natom =       2  nloc_mem =       1    nspden =       1   nspinor =       1
    nsppol =       1      nsym =      48    n1xccc =    2501    ntypat =       1
    occopt =       1   xclevel =       2
-    mband =           5        mffmem =           1         mkmem =          19
       mpw =         792          nfft =       19683          nkpt =          19
  Rough estimation (10% accuracy) of disk space for files :

[...]

 DATASET    3 : space group Fd -3 m (#227); Bravais cF (face-center cubic)
     intxc =       0    ionmov =       0      iscf =      -2    lmnmax =       6
     lnmax =       6     mgfft =      27  mpssoang =       3    mqgrid =    3001
     natom =       2  nloc_mem =       1    nspden =       1   nspinor =       1
    nsppol =       1      nsym =      48    n1xccc =    2501    ntypat =       1
    occopt =       1   xclevel =       2
-    mband =          20        mffmem =           1         mkmem =         198
       mpw =         817          nfft =       19683          nkpt =         198
  Rough estimation (10% accuracy) of disk space for files :

------------- Echo of variables that govern the present computation ------------
-
- outvars: echo of selected default values
-   iomode0 =  0 , fftalg0 =112 , wfoptalg0 =  0
-
- outvars: echo of global parameters not present in the input file
-  max_nthreads =    0
-
 -outvars: echo values of preprocessed input variables --------
            acell      1.8897261329E+00  1.8897261329E+00  1.8897261329E+00 Bohr
              amu      2.80855000E+01
          chkprim           0
      chksymbreak           0
           diemac      1.20000000E+01
        dosdeltae1     0.00000000E+00 Hartree
        dosdeltae2     2.57193829E-04 Hartree
        dosdeltae3     0.00000000E+00 Hartree
             ecut      1.46997302E+01 Hartree
-          fftalg         112
           getden1          0
           getden2          1
           getden3          1
           getwfk1          0
           getwfk2          1
           getwfk3          1
           iatsph2       1    2
             iscf1          7
             iscf2         -2
             iscf3         -2
           istwfk1       0    0    0    0    0    0    0    0    0    0
                         0    0    0    0    0    0    0    0    9
           istwfk3       2    0    0    0    0    0    0    0    0    0
                         0    0    0    0    0    0    0    0    0    0
                         0    0    0    0    0    0    0    0    5    0
                         0    0    0    0    0    0    0    0    0    0
                         0    0    0    0    0    0    0    0    0    0
                       outvar_i_n : Printing only first  50 k-points.
              ixc          11
           jdtset        1    2    3
              kpt1     1.00000000E-01  1.00000000E-01  1.00000000E-01
                       3.00000000E-01  1.00000000E-01  1.00000000E-01
                       5.00000000E-01  1.00000000E-01  1.00000000E-01
                      -3.00000000E-01  1.00000000E-01  1.00000000E-01
                      -1.00000000E-01  1.00000000E-01  1.00000000E-01
                       3.00000000E-01  3.00000000E-01  1.00000000E-01
                       5.00000000E-01  3.00000000E-01  1.00000000E-01
                      -3.00000000E-01  3.00000000E-01  1.00000000E-01
                      -1.00000000E-01  3.00000000E-01  1.00000000E-01
                       5.00000000E-01  5.00000000E-01  1.00000000E-01
                      -3.00000000E-01  5.00000000E-01  1.00000000E-01
                      -1.00000000E-01  5.00000000E-01  1.00000000E-01
                      -3.00000000E-01 -3.00000000E-01  1.00000000E-01
                       3.00000000E-01  3.00000000E-01  3.00000000E-01
                       5.00000000E-01  3.00000000E-01  3.00000000E-01
                      -3.00000000E-01  3.00000000E-01  3.00000000E-01
                       5.00000000E-01  5.00000000E-01  3.00000000E-01
                      -3.00000000E-01  5.00000000E-01  3.00000000E-01
                       5.00000000E-01  5.00000000E-01  5.00000000E-01
              kpt2     1.00000000E-01  1.00000000E-01  1.00000000E-01
                       3.00000000E-01  1.00000000E-01  1.00000000E-01
                       5.00000000E-01  1.00000000E-01  1.00000000E-01
                      -3.00000000E-01  1.00000000E-01  1.00000000E-01
                      -1.00000000E-01  1.00000000E-01  1.00000000E-01
                       1.00000000E-01  3.00000000E-01  1.00000000E-01
                       3.00000000E-01  3.00000000E-01  1.00000000E-01
                       5.00000000E-01  3.00000000E-01  1.00000000E-01
                      -3.00000000E-01  3.00000000E-01  1.00000000E-01
                      -1.00000000E-01  3.00000000E-01  1.00000000E-01
                       1.00000000E-01  5.00000000E-01  1.00000000E-01
                       3.00000000E-01  5.00000000E-01  1.00000000E-01
                       5.00000000E-01  5.00000000E-01  1.00000000E-01
                      -3.00000000E-01  5.00000000E-01  1.00000000E-01
                      -1.00000000E-01  5.00000000E-01  1.00000000E-01
                       1.00000000E-01 -3.00000000E-01  1.00000000E-01
                       3.00000000E-01 -3.00000000E-01  1.00000000E-01
                       5.00000000E-01 -3.00000000E-01  1.00000000E-01
                      -3.00000000E-01 -3.00000000E-01  1.00000000E-01
                      -1.00000000E-01 -3.00000000E-01  1.00000000E-01
                       1.00000000E-01 -1.00000000E-01  1.00000000E-01
                       3.00000000E-01 -1.00000000E-01  1.00000000E-01
                       5.00000000E-01 -1.00000000E-01  1.00000000E-01
                      -3.00000000E-01 -1.00000000E-01  1.00000000E-01
                      -1.00000000E-01 -1.00000000E-01  1.00000000E-01
                       1.00000000E-01  1.00000000E-01  3.00000000E-01
                       3.00000000E-01  1.00000000E-01  3.00000000E-01
                       5.00000000E-01  1.00000000E-01  3.00000000E-01
                      -3.00000000E-01  1.00000000E-01  3.00000000E-01
                      -1.00000000E-01  1.00000000E-01  3.00000000E-01
                       1.00000000E-01  3.00000000E-01  3.00000000E-01
                       3.00000000E-01  3.00000000E-01  3.00000000E-01
                       5.00000000E-01  3.00000000E-01  3.00000000E-01
                      -3.00000000E-01  3.00000000E-01  3.00000000E-01
                      -1.00000000E-01  3.00000000E-01  3.00000000E-01
                       1.00000000E-01  5.00000000E-01  3.00000000E-01
                       3.00000000E-01  5.00000000E-01  3.00000000E-01
                       5.00000000E-01  5.00000000E-01  3.00000000E-01
                      -3.00000000E-01  5.00000000E-01  3.00000000E-01
                      -1.00000000E-01  5.00000000E-01  3.00000000E-01
                       1.00000000E-01 -3.00000000E-01  3.00000000E-01
                       3.00000000E-01 -3.00000000E-01  3.00000000E-01
                       5.00000000E-01 -3.00000000E-01  3.00000000E-01
                      -3.00000000E-01 -3.00000000E-01  3.00000000E-01
                      -1.00000000E-01 -3.00000000E-01  3.00000000E-01
                       1.00000000E-01 -1.00000000E-01  3.00000000E-01
                       3.00000000E-01 -1.00000000E-01  3.00000000E-01
                       5.00000000E-01 -1.00000000E-01  3.00000000E-01
                      -3.00000000E-01 -1.00000000E-01  3.00000000E-01
                      -1.00000000E-01 -1.00000000E-01  3.00000000E-01
              kpt3     0.00000000E+00  0.00000000E+00  0.00000000E+00
                       1.78571429E-02  0.00000000E+00  1.78571429E-02
                       3.57142857E-02  0.00000000E+00  3.57142857E-02
                       5.35714286E-02  0.00000000E+00  5.35714286E-02
                       7.14285714E-02  0.00000000E+00  7.14285714E-02
                       8.92857143E-02  0.00000000E+00  8.92857143E-02
                       1.07142857E-01  0.00000000E+00  1.07142857E-01
                       1.25000000E-01  0.00000000E+00  1.25000000E-01
                       1.42857143E-01  0.00000000E+00  1.42857143E-01
                       1.60714286E-01  0.00000000E+00  1.60714286E-01
                       1.78571429E-01  0.00000000E+00  1.78571429E-01
                       1.96428571E-01  0.00000000E+00  1.96428571E-01
                       2.14285714E-01  0.00000000E+00  2.14285714E-01
                       2.32142857E-01  0.00000000E+00  2.32142857E-01
                       2.50000000E-01  0.00000000E+00  2.50000000E-01
                       2.67857143E-01  0.00000000E+00  2.67857143E-01
                       2.85714286E-01  0.00000000E+00  2.85714286E-01
                       3.03571429E-01  0.00000000E+00  3.03571429E-01
                       3.21428571E-01  0.00000000E+00  3.21428571E-01
                       3.39285714E-01  0.00000000E+00  3.39285714E-01
                       3.57142857E-01  0.00000000E+00  3.57142857E-01
                       3.75000000E-01  0.00000000E+00  3.75000000E-01
                       3.92857143E-01  0.00000000E+00  3.92857143E-01
                       4.10714286E-01  0.00000000E+00  4.10714286E-01
                       4.28571429E-01  0.00000000E+00  4.28571429E-01
                       4.46428571E-01  0.00000000E+00  4.46428571E-01
                       4.64285714E-01  0.00000000E+00  4.64285714E-01
                       4.82142857E-01  0.00000000E+00  4.82142857E-01
                       5.00000000E-01  0.00000000E+00  5.00000000E-01
                       5.00000000E-01  1.78571429E-02  5.17857143E-01
                       5.00000000E-01  3.57142857E-02  5.35714286E-01
                       5.00000000E-01  5.35714286E-02  5.53571429E-01
                       5.00000000E-01  7.14285714E-02  5.71428571E-01
                       5.00000000E-01  8.92857143E-02  5.89285714E-01
                       5.00000000E-01  1.07142857E-01  6.07142857E-01
                       5.00000000E-01  1.25000000E-01  6.25000000E-01
                       5.00000000E-01  1.42857143E-01  6.42857143E-01
                       5.00000000E-01  1.60714286E-01  6.60714286E-01
                       5.00000000E-01  1.78571429E-01  6.78571429E-01
[...]
                      -1.00000000E-01  3.00000000E-01  1.00000000E-01
                       5.00000000E-01  5.00000000E-01  1.00000000E-01
                      -3.00000000E-01  5.00000000E-01  1.00000000E-01
                      -1.00000000E-01  5.00000000E-01  1.00000000E-01
                      -3.00000000E-01 -3.00000000E-01  1.00000000E-01
                       3.00000000E-01  3.00000000E-01  3.00000000E-01
                       5.00000000E-01  3.00000000E-01  3.00000000E-01
                      -3.00000000E-01  3.00000000E-01  3.00000000E-01
                       5.00000000E-01  5.00000000E-01  3.00000000E-01
                      -3.00000000E-01  5.00000000E-01  3.00000000E-01
                       5.00000000E-01  5.00000000E-01  5.00000000E-01
              kpt2     1.00000000E-01  1.00000000E-01  1.00000000E-01
                       3.00000000E-01  1.00000000E-01  1.00000000E-01
                       5.00000000E-01  1.00000000E-01  1.00000000E-01
                      -3.00000000E-01  1.00000000E-01  1.00000000E-01
                      -1.00000000E-01  1.00000000E-01  1.00000000E-01
                       1.00000000E-01  3.00000000E-01  1.00000000E-01
                       3.00000000E-01  3.00000000E-01  1.00000000E-01
                       5.00000000E-01  3.00000000E-01  1.00000000E-01
                      -3.00000000E-01  3.00000000E-01  1.00000000E-01
                      -1.00000000E-01  3.00000000E-01  1.00000000E-01
                       1.00000000E-01  5.00000000E-01  1.00000000E-01
                       3.00000000E-01  5.00000000E-01  1.00000000E-01
                       5.00000000E-01  5.00000000E-01  1.00000000E-01
                      -3.00000000E-01  5.00000000E-01  1.00000000E-01
                      -1.00000000E-01  5.00000000E-01  1.00000000E-01
                       1.00000000E-01 -3.00000000E-01  1.00000000E-01
                       3.00000000E-01 -3.00000000E-01  1.00000000E-01
                       5.00000000E-01 -3.00000000E-01  1.00000000E-01
                      -3.00000000E-01 -3.00000000E-01  1.00000000E-01
                      -1.00000000E-01 -3.00000000E-01  1.00000000E-01
                       1.00000000E-01 -1.00000000E-01  1.00000000E-01
                       3.00000000E-01 -1.00000000E-01  1.00000000E-01
                       5.00000000E-01 -1.00000000E-01  1.00000000E-01
                      -3.00000000E-01 -1.00000000E-01  1.00000000E-01
                      -1.00000000E-01 -1.00000000E-01  1.00000000E-01
                       1.00000000E-01  1.00000000E-01  3.00000000E-01
                       3.00000000E-01  1.00000000E-01  3.00000000E-01
                       5.00000000E-01  1.00000000E-01  3.00000000E-01
                      -3.00000000E-01  1.00000000E-01  3.00000000E-01
                      -1.00000000E-01  1.00000000E-01  3.00000000E-01
                       1.00000000E-01  3.00000000E-01  3.00000000E-01
                       3.00000000E-01  3.00000000E-01  3.00000000E-01
                       5.00000000E-01  3.00000000E-01  3.00000000E-01
                      -3.00000000E-01  3.00000000E-01  3.00000000E-01
                      -1.00000000E-01  3.00000000E-01  3.00000000E-01
                       1.00000000E-01  5.00000000E-01  3.00000000E-01
                       3.00000000E-01  5.00000000E-01  3.00000000E-01
                       5.00000000E-01  5.00000000E-01  3.00000000E-01
                      -3.00000000E-01  5.00000000E-01  3.00000000E-01
                      -1.00000000E-01  5.00000000E-01  3.00000000E-01
                       1.00000000E-01 -3.00000000E-01  3.00000000E-01
                       3.00000000E-01 -3.00000000E-01  3.00000000E-01
                       5.00000000E-01 -3.00000000E-01  3.00000000E-01
                      -3.00000000E-01 -3.00000000E-01  3.00000000E-01
                      -1.00000000E-01 -3.00000000E-01  3.00000000E-01
                       1.00000000E-01 -1.00000000E-01  3.00000000E-01
                       3.00000000E-01 -1.00000000E-01  3.00000000E-01
                       5.00000000E-01 -1.00000000E-01  3.00000000E-01
                      -3.00000000E-01 -1.00000000E-01  3.00000000E-01
                      -1.00000000E-01 -1.00000000E-01  3.00000000E-01
              kpt3     0.00000000E+00  0.00000000E+00  0.00000000E+00
                       1.78571429E-02  0.00000000E+00  1.78571429E-02
                       3.57142857E-02  0.00000000E+00  3.57142857E-02
                       5.35714286E-02  0.00000000E+00  5.35714286E-02
                       7.14285714E-02  0.00000000E+00  7.14285714E-02
                       8.92857143E-02  0.00000000E+00  8.92857143E-02
                       1.07142857E-01  0.00000000E+00  1.07142857E-01
                       1.25000000E-01  0.00000000E+00  1.25000000E-01
                       1.42857143E-01  0.00000000E+00  1.42857143E-01
                       1.60714286E-01  0.00000000E+00  1.60714286E-01
                       1.78571429E-01  0.00000000E+00  1.78571429E-01
                       1.96428571E-01  0.00000000E+00  1.96428571E-01
                       2.14285714E-01  0.00000000E+00  2.14285714E-01
                       2.32142857E-01  0.00000000E+00  2.32142857E-01
                       2.50000000E-01  0.00000000E+00  2.50000000E-01
                       2.67857143E-01  0.00000000E+00  2.67857143E-01
                       2.85714286E-01  0.00000000E+00  2.85714286E-01
                       3.03571429E-01  0.00000000E+00  3.03571429E-01
                       3.21428571E-01  0.00000000E+00  3.21428571E-01
                       3.39285714E-01  0.00000000E+00  3.39285714E-01
                       3.57142857E-01  0.00000000E+00  3.57142857E-01
                       3.75000000E-01  0.00000000E+00  3.75000000E-01
                       3.92857143E-01  0.00000000E+00  3.92857143E-01
                       4.10714286E-01  0.00000000E+00  4.10714286E-01
                       4.28571429E-01  0.00000000E+00  4.28571429E-01
                       4.46428571E-01  0.00000000E+00  4.46428571E-01
                       4.64285714E-01  0.00000000E+00  4.64285714E-01
                       4.82142857E-01  0.00000000E+00  4.82142857E-01
                       5.00000000E-01  0.00000000E+00  5.00000000E-01
                       5.00000000E-01  1.78571429E-02  5.17857143E-01
                       5.00000000E-01  3.57142857E-02  5.35714286E-01
                       5.00000000E-01  5.35714286E-02  5.53571429E-01
                       5.00000000E-01  7.14285714E-02  5.71428571E-01
                       5.00000000E-01  8.92857143E-02  5.89285714E-01
                       5.00000000E-01  1.07142857E-01  6.07142857E-01
                       5.00000000E-01  1.25000000E-01  6.25000000E-01
                       5.00000000E-01  1.42857143E-01  6.42857143E-01
                       5.00000000E-01  1.60714286E-01  6.60714286E-01
                       5.00000000E-01  1.78571429E-01  6.78571429E-01
                       5.00000000E-01  1.96428571E-01  6.96428571E-01
                       5.00000000E-01  2.14285714E-01  7.14285714E-01
                       5.00000000E-01  2.32142857E-01  7.32142857E-01
                       5.00000000E-01  2.50000000E-01  7.50000000E-01
                       4.87500000E-01  2.62500000E-01  7.50000000E-01
                       4.75000000E-01  2.75000000E-01  7.50000000E-01
                       4.62500000E-01  2.87500000E-01  7.50000000E-01
                       4.50000000E-01  3.00000000E-01  7.50000000E-01
                       4.37500000E-01  3.12500000E-01  7.50000000E-01
                       4.25000000E-01  3.25000000E-01  7.50000000E-01
                       4.12500000E-01  3.37500000E-01  7.50000000E-01
                       outvar_i_n : Printing only first  50 k-points.
           kptopt1          1
           kptopt2          3
           kptopt3        -11
         kptrlatt        5    0    0      0    5    0      0    0    5
          kptrlen1     3.71915174E+01
          kptrlen2     3.71915174E+01
          kptrlen3     3.00000000E+01
P           mkmem1         19
P           mkmem2        125
P           mkmem3        198
            natom           2
           natsph2       2
            nband1          5
            nband2         20
            nband3         20
           nbdbuf1          0
           nbdbuf2          2
           nbdbuf3          2
           ndtset           3
           ndivsm1          0
           ndivsm2          0
           ndivsm3         10
            ngfft          27      27      27
             nkpt1         19
             nkpt2        125
             nkpt3        198
            nstep          20
             nsym          48
           ntypat           1
              occ      2.000000  2.000000  2.000000  2.000000  0.000000
           prtden1          1
           prtden2          1
           prtden3          0
           prtdos1          0
           prtdos2          3
           prtdos3          0
          prtdosm1          0
          prtdosm2          1
          prtdosm3          0
           prtelf1          0
           prtelf2          2
           prtelf3          0
            rprim      0.0000000000E+00  2.7833000422E+00  2.7833000422E+00
                       2.7833000422E+00  0.0000000000E+00  2.7833000422E+00
                       2.7833000422E+00  2.7833000422E+00  0.0000000000E+00
           shiftk      5.00000000E-01  5.00000000E-01  5.00000000E-01
          spgroup         227
           strten1     1.4367368933E-04  1.4367368933E-04  1.4367368933E-04
                       0.0000000000E+00  0.0000000000E+00  0.0000000000E+00
           symrel      1  0  0   0  1  0   0  0  1      -1  0  0   0 -1  0   0  0 -1
                       0 -1  1   0 -1  0   1 -1  0       0  1 -1   0  1  0  -1  1  0
                      -1  0  0  -1  0  1  -1  1  0       1  0  0   1  0 -1   1 -1  0
                       0  1 -1   1  0 -1   0  0 -1       0 -1  1  -1  0  1   0  0  1
                      -1  0  0  -1  1  0  -1  0  1       1  0  0   1 -1  0   1  0 -1
                       0 -1  1   1 -1  0   0 -1  0       0  1 -1  -1  1  0   0  1  0
                       1  0  0   0  0  1   0  1  0      -1  0  0   0  0 -1   0 -1  0
                       0  1 -1   0  0 -1   1  0 -1       0 -1  1   0  0  1  -1  0  1
                      -1  0  1  -1  1  0  -1  0  0       1  0 -1   1 -1  0   1  0  0
                       0 -1  0   1 -1  0   0 -1  1       0  1  0  -1  1  0   0  1 -1
                       1  0 -1   0  0 -1   0  1 -1      -1  0  1   0  0  1   0 -1  1
                       0  1  0   0  0  1   1  0  0       0 -1  0   0  0 -1  -1  0  0
                       1  0 -1   0  1 -1   0  0 -1      -1  0  1   0 -1  1   0  0  1
                       0 -1  0   0 -1  1   1 -1  0       0  1  0   0  1 -1  -1  1  0
                      -1  0  1  -1  0  0  -1  1  0       1  0 -1   1  0  0   1 -1  0
                       0  1  0   1  0  0   0  0  1       0 -1  0  -1  0  0   0  0 -1
                       0  0 -1   0  1 -1   1  0 -1       0  0  1   0 -1  1  -1  0  1
                       1 -1  0   0 -1  1   0 -1  0      -1  1  0   0  1 -1   0  1  0
                       0  0  1   1  0  0   0  1  0       0  0 -1  -1  0  0   0 -1  0
                      -1  1  0  -1  0  0  -1  0  1       1 -1  0   1  0  0   1  0 -1
                       0  0  1   0  1  0   1  0  0       0  0 -1   0 -1  0  -1  0  0
                       1 -1  0   0 -1  0   0 -1  1      -1  1  0   0  1  0   0  1 -1
                       0  0 -1   1  0 -1   0  1 -1       0  0  1  -1  0  1   0 -1  1
                      -1  1  0  -1  0  1  -1  0  0       1 -1  0   1  0 -1   1  0  0
            tnons      0.0000000  0.0000000  0.0000000     0.2500000  0.2500000  0.2500000
                       0.0000000  0.0000000  0.0000000     0.2500000  0.2500000  0.2500000
                       0.0000000  0.0000000  0.0000000     0.2500000  0.2500000  0.2500000
                       0.0000000  0.0000000  0.0000000     0.2500000  0.2500000  0.2500000
                       0.0000000  0.0000000  0.0000000     0.2500000  0.2500000  0.2500000
                       0.0000000  0.0000000  0.0000000     0.2500000  0.2500000  0.2500000
                       0.0000000  0.0000000  0.0000000     0.2500000  0.2500000  0.2500000
                       0.0000000  0.0000000  0.0000000     0.2500000  0.2500000  0.2500000
                       0.0000000  0.0000000  0.0000000     0.2500000  0.2500000  0.2500000
                       0.0000000  0.0000000  0.0000000     0.2500000  0.2500000  0.2500000
                       0.0000000  0.0000000  0.0000000     0.2500000  0.2500000  0.2500000
                       0.0000000  0.0000000  0.0000000     0.2500000  0.2500000  0.2500000
                       0.0000000  0.0000000  0.0000000     0.2500000  0.2500000  0.2500000
                       0.0000000  0.0000000  0.0000000     0.2500000  0.2500000  0.2500000
                       0.0000000  0.0000000  0.0000000     0.2500000  0.2500000  0.2500000
                       0.0000000  0.0000000  0.0000000     0.2500000  0.2500000  0.2500000
                       0.0000000  0.0000000  0.0000000     0.2500000  0.2500000  0.2500000
                       0.0000000  0.0000000  0.0000000     0.2500000  0.2500000  0.2500000
                       0.0000000  0.0000000  0.0000000     0.2500000  0.2500000  0.2500000
                       0.0000000  0.0000000  0.0000000     0.2500000  0.2500000  0.2500000
                       0.0000000  0.0000000  0.0000000     0.2500000  0.2500000  0.2500000
                       0.0000000  0.0000000  0.0000000     0.2500000  0.2500000  0.2500000
                       0.0000000  0.0000000  0.0000000     0.2500000  0.2500000  0.2500000
                       0.0000000  0.0000000  0.0000000     0.2500000  0.2500000  0.2500000
           toldfe1     1.00000000E-06 Hartree
           toldfe2     0.00000000E+00 Hartree
           toldfe3     0.00000000E+00 Hartree
           tolwfr1     0.00000000E+00
           tolwfr2     1.00000000E-10
           tolwfr3     1.00000000E-08
            typat      1  1
              wtk1       0.01600    0.04800    0.04800    0.04800    0.04800    0.04800
                         0.09600    0.09600    0.09600    0.04800    0.09600    0.04800
                         0.04800    0.01600    0.04800    0.04800    0.04800    0.04800
                         0.00800
              wtk2       0.00800    0.00800    0.00800    0.00800    0.00800    0.00800
                         0.00800    0.00800    0.00800    0.00800    0.00800    0.00800
                         0.00800    0.00800    0.00800    0.00800    0.00800    0.00800
                         0.00800    0.00800    0.00800    0.00800    0.00800    0.00800
                         0.00800    0.00800    0.00800    0.00800    0.00800    0.00800
                         0.00800    0.00800    0.00800    0.00800    0.00800    0.00800
                         0.00800    0.00800    0.00800    0.00800    0.00800    0.00800
                         0.00800    0.00800    0.00800    0.00800    0.00800    0.00800
                         0.00800    0.00800
              wtk3       1.00000    1.00000    1.00000    1.00000    1.00000    1.00000
                         1.00000    1.00000    1.00000    1.00000    1.00000    1.00000
                         1.00000    1.00000    1.00000    1.00000    1.00000    1.00000
                         1.00000    1.00000    1.00000    1.00000    1.00000    1.00000
                         1.00000    1.00000    1.00000    1.00000    1.00000    1.00000
                         1.00000    1.00000    1.00000    1.00000    1.00000    1.00000
                         1.00000    1.00000    1.00000    1.00000    1.00000    1.00000
                         1.00000    1.00000    1.00000    1.00000    1.00000    1.00000
                         1.00000    1.00000
                       outvars : Printing only first  50 k-points.
           xangst      0.0000000000E+00  0.0000000000E+00  0.0000000000E+00
                       1.3916500211E+00  1.3916500211E+00  1.3916500211E+00
            xcart      0.0000000000E+00  0.0000000000E+00  0.0000000000E+00
                       2.6298374127E+00  2.6298374127E+00  2.6298374127E+00
             xred      0.0000000000E+00  0.0000000000E+00  0.0000000000E+00
                       2.5000000000E-01  2.5000000000E-01  2.5000000000E-01
            znucl       14.00000

- Timing analysis has been suppressed with timopt=0

 Suggested references for the acknowledgment of ABINIT usage.

 Calculation completed.
.Delivered   4 WARNINGs and  16 COMMENTs to log file.